;; translated from ./bv/NetBSD_loop.c.vmt
;; original benchmark available at: https://es-static.fbk.eu/people/griggio/ic3ia/index.html
;; author: Alberto Griggio <griggio@fbk.eu>
(set-logic HORN)
(declare-fun state (Bool Bool Bool (_ BitVec 32) (_ BitVec 32) (_ BitVec 32) (_ BitVec 32) (_ BitVec 32)) Bool)
(assert (forall ((|.PC.2.next| Bool) (|glob2_pathlim_off__12$main| (_ BitVec 32)) (|glob2_pathlim_off__12$main.next| (_ BitVec 32)) (|MAXPATHLEN__2$main| (_ BitVec 32)) (|MAXPATHLEN__2$main.next| (_ BitVec 32)) (|__RET__$main.next| (_ BitVec 32)) (|__RET__$main| (_ BitVec 32)) (|bound_off__6$main| (_ BitVec 32)) (|bound_off__6$main.next| (_ BitVec 32)) (|glob2_p_off__8$main| (_ BitVec 32)) (|glob2_p_off__8$main.next| (_ BitVec 32)) (|__NONDET_INLINE_INIT__3__8$main#0| (_ BitVec 32)) (|.PC.0| Bool) (|.PC.2| Bool) (|.PC.1| Bool) (|.PC.0.next| Bool) (|.PC.1.next| Bool)) (=> (let ((.def_15 (not .PC.2)))
(let ((.def_12 (not .PC.1)))
(let ((.def_10 (not .PC.0)))
(let ((.def_13 (and .def_10 .def_12)))
(let ((.def_16 (and .def_13 .def_15)))
.def_16))))) (state |.PC.0| |.PC.1| |.PC.2| |__RET__$main| |glob2_p_off__8$main| |glob2_pathlim_off__12$main| |MAXPATHLEN__2$main| |bound_off__6$main|))))
(assert (forall ((|.PC.2.next| Bool) (|glob2_pathlim_off__12$main| (_ BitVec 32)) (|glob2_pathlim_off__12$main.next| (_ BitVec 32)) (|MAXPATHLEN__2$main| (_ BitVec 32)) (|MAXPATHLEN__2$main.next| (_ BitVec 32)) (|__RET__$main.next| (_ BitVec 32)) (|__RET__$main| (_ BitVec 32)) (|bound_off__6$main| (_ BitVec 32)) (|bound_off__6$main.next| (_ BitVec 32)) (|glob2_p_off__8$main| (_ BitVec 32)) (|glob2_p_off__8$main.next| (_ BitVec 32)) (|__NONDET_INLINE_INIT__3__8$main#0| (_ BitVec 32)) (|.PC.0| Bool) (|.PC.2| Bool) (|.PC.1| Bool) (|.PC.0.next| Bool) (|.PC.1.next| Bool)) (=> (and (state |.PC.0| |.PC.1| |.PC.2| |__RET__$main| |glob2_p_off__8$main| |glob2_pathlim_off__12$main| |MAXPATHLEN__2$main| |bound_off__6$main|) (let ((.def_10 (not .PC.0)))
(let ((.def_111 (and .def_10 .PC.1)))
(let ((.def_112 (and .PC.2 .def_111)))
(let ((.def_63 (not .PC.0.next)))
(let ((.def_103 (and .PC.1.next .def_63)))
(let ((.def_104 (and .PC.2.next .def_103)))
(let ((.def_113 (and .def_104 .def_112)))
(let ((.def_12 (not .PC.1)))
(let ((.def_13 (and .def_10 .def_12)))
(let ((.def_108 (and .def_13 .PC.2)))
(let ((.def_55 (= glob2_pathlim_off__12$main.next glob2_pathlim_off__12$main)))
(let ((.def_53 (= MAXPATHLEN__2$main.next MAXPATHLEN__2$main)))
(let ((.def_99 (and .def_53 .def_55)))
(let ((.def_34 (= __RET__$main __RET__$main.next)))
(let ((.def_100 (and .def_34 .def_99)))
(let ((.def_59 (= bound_off__6$main.next bound_off__6$main)))
(let ((.def_101 (and .def_59 .def_100)))
(let ((.def_61 (= glob2_p_off__8$main.next glob2_p_off__8$main)))
(let ((.def_102 (and .def_61 .def_101)))
(let ((.def_105 (and .def_102 .def_104)))
(let ((.def_109 (and .def_105 .def_108)))
(let ((.def_67 (and .PC.0 .def_12)))
(let ((.def_98 (and .PC.2 .def_67)))
(let ((.def_106 (and .def_98 .def_105)))
(let ((.def_88 (bvadd (_ bv1 32) glob2_p_off__8$main)))
(let ((.def_89 (= glob2_p_off__8$main.next .def_88)))
(let ((.def_49 ((_ extract 31 31) glob2_p_off__8$main)))
(let ((.def_50 (= .def_49 (_ bv1 1))))
(let ((.def_75 (not .def_50)))
(let ((.def_47 (bvslt glob2_pathlim_off__12$main glob2_p_off__8$main)))
(let ((.def_48 (not .def_47)))
(let ((.def_76 (and .def_48 .def_75)))
(let ((.def_72 (bvadd (_ bv1 32) MAXPATHLEN__2$main)))
(let ((.def_73 (bvslt glob2_p_off__8$main .def_72)))
(let ((.def_87 (and .def_73 .def_76)))
(let ((.def_90 (and .def_87 .def_89)))
(let ((.def_91 (and .def_53 .def_90)))
(let ((.def_92 (and .def_55 .def_91)))
(let ((.def_93 (and .def_34 .def_92)))
(let ((.def_94 (and .def_59 .def_93)))
(let ((.def_39 (not .PC.1.next)))
(let ((.def_41 (and .def_39 .PC.0.next)))
(let ((.def_37 (not .PC.2.next)))
(let ((.def_42 (and .def_37 .def_41)))
(let ((.def_95 (and .def_42 .def_94)))
(let ((.def_15 (not .PC.2)))
(let ((.def_68 (and .def_15 .def_67)))
(let ((.def_96 (and .def_68 .def_95)))
(let ((.def_83 (and .PC.2.next .def_41)))
(let ((.def_74 (not .def_73)))
(let ((.def_77 (and .def_74 .def_76)))
(let ((.def_78 (and .def_53 .def_77)))
(let ((.def_79 (and .def_55 .def_78)))
(let ((.def_80 (and .def_34 .def_79)))
(let ((.def_81 (and .def_59 .def_80)))
(let ((.def_82 (and .def_61 .def_81)))
(let ((.def_84 (and .def_82 .def_83)))
(let ((.def_85 (and .def_68 .def_84)))
(let ((.def_64 (and .def_39 .def_63)))
(let ((.def_65 (and .PC.2.next .def_64)))
(let ((.def_51 (and .def_48 .def_50)))
(let ((.def_54 (and .def_51 .def_53)))
(let ((.def_56 (and .def_54 .def_55)))
(let ((.def_57 (and .def_34 .def_56)))
(let ((.def_60 (and .def_57 .def_59)))
(let ((.def_62 (and .def_60 .def_61)))
(let ((.def_66 (and .def_62 .def_65)))
(let ((.def_69 (and .def_66 .def_68)))
(let ((.def_30 (= glob2_p_off__8$main.next (_ bv0 32))))
(let ((.def_26 (= bound_off__6$main.next MAXPATHLEN__2$main.next)))
(let ((.def_24 (bvslt (_ bv0 32) MAXPATHLEN__2$main.next)))
(let ((.def_22 (= MAXPATHLEN__2$main.next |__NONDET_INLINE_INIT__3__8$main#0|)))
(let ((.def_25 (and .def_22 .def_24)))
(let ((.def_27 (and .def_25 .def_26)))
(let ((.def_19 (= glob2_pathlim_off__12$main.next bound_off__6$main.next)))
(let ((.def_28 (and .def_19 .def_27)))
(let ((.def_31 (and .def_28 .def_30)))
(let ((.def_35 (and .def_31 .def_34)))
(let ((.def_43 (and .def_35 .def_42)))
(let ((.def_16 (and .def_13 .def_15)))
(let ((.def_44 (and .def_16 .def_43)))
(let ((.def_70 (or .def_44 .def_69)))
(let ((.def_86 (or .def_70 .def_85)))
(let ((.def_97 (or .def_86 .def_96)))
(let ((.def_107 (or .def_97 .def_106)))
(let ((.def_110 (or .def_107 .def_109)))
(let ((.def_114 (or .def_110 .def_113)))
.def_114)))))))))))))))))))))))))))))))))))))))))))))))))))))))))))))))))))))))))))))))))))))))) (state |.PC.0.next| |.PC.1.next| |.PC.2.next| |__RET__$main.next| |glob2_p_off__8$main.next| |glob2_pathlim_off__12$main.next| |MAXPATHLEN__2$main.next| |bound_off__6$main.next|))))
(assert (forall ((|.PC.2.next| Bool) (|glob2_pathlim_off__12$main| (_ BitVec 32)) (|glob2_pathlim_off__12$main.next| (_ BitVec 32)) (|MAXPATHLEN__2$main| (_ BitVec 32)) (|MAXPATHLEN__2$main.next| (_ BitVec 32)) (|__RET__$main.next| (_ BitVec 32)) (|__RET__$main| (_ BitVec 32)) (|bound_off__6$main| (_ BitVec 32)) (|bound_off__6$main.next| (_ BitVec 32)) (|glob2_p_off__8$main| (_ BitVec 32)) (|glob2_p_off__8$main.next| (_ BitVec 32)) (|__NONDET_INLINE_INIT__3__8$main#0| (_ BitVec 32)) (|.PC.0| Bool) (|.PC.2| Bool) (|.PC.1| Bool) (|.PC.0.next| Bool) (|.PC.1.next| Bool)) (=> (state |.PC.0| |.PC.1| |.PC.2| |__RET__$main| |glob2_p_off__8$main| |glob2_pathlim_off__12$main| |MAXPATHLEN__2$main| |bound_off__6$main|) (let ((.def_10 (not .PC.0)))
(let ((.def_111 (and .def_10 .PC.1)))
(let ((.def_112 (and .PC.2 .def_111)))
(let ((.def_115 (not .def_112)))
.def_115)))))))
(check-sat)
